2
13
1861  536
2460 7930
6805 5631
8286 4305
4093 6774
8268 7721
3627 1360
8902  282
2396 2590
9462 1817
 620 5561
  13 7160
4291 9335
13
3627 1360
1861  536
6805 5631
8286 4305
9462 1817
 620 5561
  13 7160
4291 9335
4093 6774
8268 7721
8902  282
2396 2590
2460 7930
